NAME: tsp-b-12
TYPE: TSP
COMMENT: min_cost = 471.07
DIMENSION: 12
EDGE_WEIGHT_TYPE: EUC_2D
NODE_COORD_SECTION
1 26 140
2 52 115
3 11 83
4 76 134
5 115 122
6 73 141
7 59 15
8 13 13
9 21 37
10 103 20
11 116 10
12 93 26
EOF
